(set-info :source |printed by MathSAT|)

1 (6) @37:
(assert true)

6 (10) @56:
(assert true)

10 (13,12,11) @56:
(assert true)

13 () @401:
(assert true)

12 () @56:
(assert true)

11 () @402:
(assert true)

